outputs/case_434.model.txt
internal_control_records_retention_period_years = 5
internal_control_recorded_and_retained = True
responsible_persons_duties_fulfilled = True
investment_decision_recorded = True
market_manipulation_or_investor_harm = False
investment_review_submitted_monthly = True
fraudulent_or_misleading_acts = False
investment_analysis_reasonable = True
internal_control_executed = True
improper_account_transfer = False
prohibited_behaviors_absent = True
improper_promotion_or_benefit_provision = False
personnel_qualifications_and_conduct_compliant = True
improper_public_recommendation_or_forecast = False
investment_execution_recorded = True
other_acts_harming_investors_or_business = False
internal_control_records_retained = True
personnel_qualifications_compliant = True
unreasonable_commission_or_nonprofessional_recruitment = False
internal_control_defined_in_system = True
confidentiality_maintained = True
unauthorized_securities_investment_agent = False
vote_proxy_trading_for_benefit = False
internal_control_defined_and_executed = True
self_dealing_or_conflict_of_interest = False
investment_decision_based_on_analysis = True
investment_monthly_reviewed = True
client_data_kept_confidential = True
duties_fulfilled_with_diligence_and_loyalty = True
investment_analysis_has_reasonable_basis = True
penalty = False
improper_fee_or_benefit_handling = False
insider_information_leaked = False